400 1584 
1 5 1
1 6 1
1 7 1
1 8 1
1 17 1
1 20 1
1 21 1
1 49 1
1 52 1
1 65 1
1 79 1
1 81 1
1 91 1
1 103 1
1 110 1
1 113 1
1 116 1
1 130 1
1 159 1
1 166 1
1 211 1
1 215 1
1 231 1
1 233 1
1 281 1
1 294 1
1 317 1
1 345 1
2 5 1
2 6 1
2 7 1
2 10 1
2 19 1
2 21 1
2 24 1
2 26 1
2 36 1
2 37 1
2 43 1
2 59 1
2 60 1
2 87 1
2 101 1
2 108 1
2 125 1
2 134 1
2 151 1
2 169 1
2 180 1
2 183 1
2 202 1
2 224 1
2 233 1
2 235 1
2 275 1
2 301 1
2 308 1
2 312 1
2 331 1
2 341 1
2 400 1
3 5 1
3 6 1
3 11 1
3 31 1
3 61 1
3 131 1
3 132 1
3 141 1
3 163 1
3 172 1
3 187 1
3 202 1
3 209 1
3 242 1
3 291 1
3 310 1
3 327 1
3 368 1
3 374 1
4 5 1
4 7 1
4 8 1
4 9 1
4 10 1
4 12 1
4 13 1
4 14 1
4 16 1
4 18 1
4 27 1
4 36 1
4 37 1
4 43 1
4 52 1
4 74 1
4 98 1
4 106 1
4 120 1
4 154 1
4 163 1
4 170 1
4 171 1
4 177 1
4 178 1
4 226 1
4 265 1
4 288 1
4 336 1
4 342 1
4 347 1
5 6 1
5 7 1
5 8 1
5 11 1
5 12 1
5 13 1
5 14 1
5 15 1
5 17 1
5 18 1
5 19 1
5 23 1
5 25 1
5 27 1
5 28 1
5 33 1
5 46 1
5 53 1
5 54 1
5 63 1
5 66 1
5 72 1
5 75 1
5 78 1
5 98 1
5 103 1
5 108 1
5 115 1
5 122 1
5 142 1
5 145 1
5 148 1
5 150 1
5 160 1
5 193 1
5 205 1
5 208 1
5 258 1
5 261 1
5 266 1
5 271 1
5 301 1
5 313 1
5 327 1
5 328 1
5 331 1
5 360 1
5 372 1
5 378 1
5 399 1
5 400 1
6 8 1
6 9 1
6 11 1
6 15 1
6 21 1
6 23 1
6 26 1
6 28 1
6 31 1
6 32 1
6 33 1
6 35 1
6 38 1
6 42 1
6 43 1
6 46 1
6 49 1
6 55 1
6 56 1
6 58 1
6 81 1
6 96 1
6 118 1
6 141 1
6 147 1
6 156 1
6 173 1
6 194 1
6 213 1
6 214 1
6 220 1
6 243 1
6 248 1
6 257 1
6 283 1
6 297 1
6 323 1
6 326 1
6 332 1
6 341 1
6 383 1
6 398 1
6 399 1
7 9 1
7 11 1
7 12 1
7 16 1
7 17 1
7 22 1
7 31 1
7 32 1
7 34 1
7 64 1
7 80 1
7 89 1
7 113 1
7 127 1
7 157 1
7 176 1
7 177 1
7 187 1
7 265 1
7 289 1
7 295 1
7 299 1
7 305 1
7 320 1
7 380 1
7 399 1
8 9 1
8 10 1
8 12 1
8 13 1
8 15 1
8 16 1
8 20 1
8 33 1
8 40 1
8 50 1
8 53 1
8 77 1
8 78 1
8 91 1
8 119 1
8 123 1
8 135 1
8 157 1
8 159 1
8 168 1
8 174 1
8 181 1
8 198 1
8 245 1
8 259 1
8 266 1
8 273 1
8 299 1
8 307 1
8 357 1
9 10 1
9 14 1
9 19 1
9 27 1
9 28 1
9 32 1
9 34 1
9 39 1
9 44 1
9 50 1
9 56 1
9 76 1
9 87 1
9 88 1
9 96 1
9 98 1
9 108 1
9 134 1
9 139 1
9 146 1
9 158 1
9 162 1
9 164 1
9 168 1
9 196 1
9 204 1
9 218 1
9 255 1
9 259 1
9 269 1
9 277 1
9 283 1
9 303 1
9 325 1
9 327 1
9 393 1
10 13 1
10 29 1
10 43 1
10 44 1
10 48 1
10 54 1
10 55 1
10 62 1
10 65 1
10 66 1
10 112 1
10 115 1
10 127 1
10 176 1
10 182 1
10 189 1
10 203 1
10 253 1
10 262 1
10 268 1
10 306 1
10 321 1
10 325 1
10 354 1
10 386 1
10 396 1
11 22 1
11 57 1
11 61 1
11 62 1
11 81 1
11 90 1
11 112 1
11 143 1
11 153 1
11 162 1
11 213 1
11 264 1
11 381 1
12 14 1
12 15 1
12 16 1
12 40 1
12 47 1
12 50 1
12 122 1
12 129 1
12 188 1
12 223 1
12 247 1
12 360 1
12 397 1
13 18 1
13 22 1
13 24 1
13 29 1
13 46 1
13 48 1
13 53 1
13 59 1
13 66 1
13 71 1
13 89 1
13 102 1
13 104 1
13 107 1
13 113 1
13 116 1
13 118 1
13 119 1
13 124 1
13 189 1
13 191 1
13 194 1
13 209 1
13 237 1
13 255 1
13 258 1
13 274 1
13 279 1
13 292 1
13 297 1
13 360 1
14 18 1
14 34 1
14 51 1
14 61 1
14 73 1
14 111 1
14 153 1
14 272 1
14 273 1
14 303 1
14 310 1
14 326 1
14 330 1
14 362 1
14 383 1
15 17 1
15 20 1
15 22 1
15 33 1
15 36 1
15 41 1
15 56 1
15 58 1
15 83 1
15 93 1
15 98 1
15 100 1
15 105 1
15 109 1
15 111 1
15 114 1
15 120 1
15 136 1
15 142 1
15 200 1
15 222 1
15 246 1
15 263 1
15 270 1
15 281 1
15 346 1
15 357 1
15 364 1
15 376 1
16 19 1
16 20 1
16 26 1
16 27 1
16 30 1
16 36 1
16 37 1
16 41 1
16 47 1
16 68 1
16 77 1
16 86 1
16 99 1
16 119 1
16 120 1
16 121 1
16 144 1
16 169 1
16 179 1
16 199 1
16 213 1
16 219 1
16 221 1
16 352 1
16 371 1
17 21 1
17 32 1
17 35 1
17 49 1
17 79 1
17 95 1
17 104 1
17 110 1
17 131 1
17 145 1
17 180 1
17 190 1
17 193 1
17 229 1
17 235 1
17 266 1
17 309 1
18 25 1
18 26 1
18 46 1
18 60 1
18 79 1
18 90 1
18 124 1
18 160 1
18 169 1
18 199 1
18 299 1
18 316 1
18 355 1
18 380 1
19 24 1
19 30 1
19 51 1
19 80 1
19 96 1
19 126 1
19 152 1
19 239 1
19 270 1
19 328 1
19 330 1
20 23 1
20 29 1
20 64 1
20 71 1
20 88 1
20 148 1
20 159 1
20 175 1
20 188 1
20 207 1
20 248 1
20 285 1
20 364 1
20 371 1
21 31 1
21 102 1
21 106 1
21 223 1
21 230 1
21 301 1
21 391 1
22 23 1
22 24 1
22 25 1
22 35 1
22 45 1
22 49 1
22 55 1
22 67 1
22 70 1
22 71 1
22 86 1
22 95 1
22 96 1
22 123 1
22 133 1
22 150 1
22 182 1
22 239 1
22 281 1
22 285 1
22 315 1
22 333 1
22 345 1
22 349 1
22 386 1
23 28 1
23 29 1
23 30 1
23 34 1
23 39 1
23 48 1
23 67 1
23 74 1
23 82 1
23 88 1
23 139 1
23 212 1
23 237 1
23 244 1
23 260 1
23 274 1
23 311 1
23 370 1
23 382 1
24 25 1
24 51 1
24 62 1
24 73 1
24 92 1
24 111 1
24 151 1
24 184 1
24 232 1
24 269 1
24 270 1
24 307 1
24 330 1
24 338 1
24 351 1
24 377 1
25 35 1
25 40 1
25 41 1
25 52 1
25 65 1
25 74 1
25 75 1
25 128 1
25 165 1
25 179 1
25 311 1
25 358 1
25 389 1
26 30 1
26 39 1
26 42 1
26 44 1
26 50 1
26 51 1
26 69 1
26 82 1
26 83 1
26 95 1
26 116 1
26 123 1
26 125 1
26 132 1
26 157 1
26 171 1
26 212 1
26 236 1
26 259 1
26 280 1
26 293 1
26 311 1
26 324 1
26 383 1
26 395 1
27 47 1
27 67 1
27 197 1
27 368 1
27 393 1
28 38 1
28 45 1
28 68 1
28 75 1
28 81 1
28 99 1
28 156 1
28 164 1
28 188 1
28 292 1
28 296 1
28 317 1
28 389 1
29 38 1
29 39 1
29 48 1
29 54 1
29 55 1
29 59 1
29 60 1
29 76 1
29 93 1
29 102 1
29 104 1
29 105 1
29 110 1
29 126 1
29 160 1
29 162 1
29 166 1
29 191 1
29 192 1
29 193 1
29 226 1
29 264 1
29 279 1
29 280 1
29 282 1
29 307 1
29 308 1
29 338 1
29 355 1
29 374 1
29 377 1
29 385 1
29 398 1
30 45 1
30 210 1
30 280 1
30 286 1
31 70 1
31 206 1
31 243 1
31 254 1
31 282 1
32 37 1
32 38 1
32 155 1
32 310 1
33 79 1
33 138 1
33 196 1
33 232 1
33 278 1
33 293 1
33 314 1
33 343 1
34 47 1
34 56 1
34 63 1
34 91 1
34 93 1
34 99 1
34 100 1
34 115 1
34 117 1
34 142 1
34 143 1
34 148 1
34 161 1
34 170 1
34 183 1
34 191 1
34 199 1
34 209 1
34 217 1
34 225 1
34 227 1
34 261 1
34 288 1
34 289 1
34 294 1
34 305 1
34 332 1
34 339 1
34 356 1
34 398 1
35 58 1
35 119 1
35 156 1
35 214 1
35 242 1
35 256 1
35 292 1
36 52 1
36 53 1
36 116 1
36 164 1
36 201 1
36 247 1
36 291 1
37 40 1
37 42 1
37 62 1
37 69 1
37 70 1
37 77 1
37 80 1
37 111 1
37 121 1
37 130 1
37 154 1
37 161 1
37 167 1
37 218 1
37 230 1
37 236 1
37 240 1
37 260 1
37 265 1
37 276 1
37 286 1
37 319 1
37 345 1
38 41 1
38 90 1
38 108 1
38 167 1
38 211 1
38 215 1
38 241 1
38 279 1
38 300 1
38 310 1
38 328 1
38 340 1
39 45 1
39 61 1
39 64 1
39 65 1
39 117 1
39 158 1
39 216 1
39 276 1
39 334 1
40 42 1
40 107 1
40 112 1
40 135 1
40 136 1
40 149 1
40 155 1
40 161 1
40 205 1
40 232 1
40 249 1
40 281 1
41 44 1
41 54 1
41 63 1
41 89 1
41 121 1
41 144 1
41 208 1
41 210 1
41 245 1
41 249 1
41 339 1
41 342 1
41 352 1
42 72 1
42 76 1
42 100 1
42 118 1
42 203 1
42 227 1
42 249 1
42 252 1
42 373 1
42 376 1
42 383 1
43 123 1
43 173 1
43 196 1
43 241 1
43 308 1
44 83 1
44 143 1
44 156 1
44 191 1
44 194 1
44 197 1
44 351 1
45 69 1
45 83 1
45 85 1
45 86 1
45 94 1
45 101 1
45 131 1
45 259 1
45 368 1
46 57 1
46 129 1
46 161 1
46 217 1
46 225 1
46 264 1
46 320 1
46 362 1
47 57 1
47 84 1
47 85 1
47 134 1
47 178 1
47 224 1
47 234 1
47 284 1
47 361 1
48 92 1
48 122 1
48 192 1
48 206 1
48 321 1
48 384 1
49 67 1
49 68 1
49 73 1
49 85 1
49 92 1
49 130 1
49 275 1
49 322 1
49 338 1
50 97 1
50 155 1
50 393 1
51 58 1
51 94 1
51 122 1
51 138 1
51 202 1
51 217 1
51 328 1
51 391 1
53 59 1
53 70 1
53 78 1
53 82 1
53 93 1
53 152 1
53 186 1
54 69 1
54 109 1
54 141 1
54 149 1
54 165 1
54 179 1
54 210 1
54 302 1
54 327 1
54 379 1
54 382 1
55 57 1
55 64 1
55 99 1
55 100 1
55 126 1
55 143 1
55 165 1
55 232 1
55 248 1
55 253 1
55 255 1
55 268 1
55 391 1
56 60 1
56 129 1
56 153 1
56 174 1
56 267 1
57 97 1
57 147 1
58 94 1
58 140 1
58 146 1
58 180 1
58 184 1
58 203 1
58 233 1
58 239 1
58 257 1
59 66 1
59 68 1
59 72 1
59 78 1
59 90 1
59 110 1
59 114 1
59 121 1
59 125 1
59 133 1
59 137 1
59 139 1
59 140 1
59 157 1
59 167 1
59 168 1
59 181 1
59 234 1
59 273 1
59 280 1
59 311 1
59 314 1
59 340 1
59 376 1
59 378 1
59 392 1
60 89 1
60 105 1
60 150 1
61 71 1
61 73 1
61 102 1
61 141 1
61 185 1
61 190 1
61 218 1
61 225 1
61 228 1
61 271 1
61 323 1
61 331 1
61 332 1
61 353 1
61 367 1
61 387 1
62 63 1
62 84 1
62 133 1
62 209 1
62 275 1
62 321 1
62 338 1
62 397 1
63 75 1
63 149 1
63 186 1
63 243 1
63 256 1
64 114 1
64 115 1
64 165 1
64 176 1
64 204 1
64 205 1
64 307 1
64 372 1
64 379 1
65 195 1
65 262 1
65 324 1
66 77 1
66 80 1
66 101 1
66 137 1
66 146 1
66 147 1
66 149 1
66 173 1
66 252 1
66 350 1
67 195 1
67 212 1
67 220 1
67 248 1
67 264 1
67 344 1
67 377 1
67 381 1
68 72 1
68 76 1
68 168 1
68 289 1
68 329 1
68 334 1
69 105 1
69 236 1
69 309 1
70 86 1
70 95 1
70 109 1
70 112 1
70 159 1
70 173 1
70 197 1
70 208 1
70 282 1
70 309 1
71 87 1
71 331 1
72 74 1
72 85 1
72 104 1
72 128 1
72 140 1
72 343 1
73 82 1
73 84 1
73 87 1
73 94 1
73 97 1
73 117 1
73 127 1
73 146 1
73 148 1
73 151 1
73 152 1
73 250 1
73 261 1
73 356 1
73 359 1
74 188 1
74 246 1
74 263 1
74 304 1
75 135 1
75 147 1
75 200 1
75 216 1
75 231 1
75 293 1
75 298 1
75 339 1
76 318 1
77 137 1
77 179 1
77 186 1
77 197 1
78 84 1
78 124 1
78 128 1
78 133 1
78 181 1
78 187 1
78 216 1
78 217 1
78 227 1
78 263 1
78 268 1
78 292 1
78 384 1
78 390 1
78 394 1
79 92 1
79 138 1
79 254 1
80 124 1
80 128 1
80 154 1
80 185 1
80 199 1
80 244 1
80 247 1
80 250 1
80 300 1
80 302 1
80 337 1
80 363 1
80 388 1
81 158 1
81 172 1
81 290 1
81 375 1
82 91 1
82 130 1
82 181 1
82 229 1
82 235 1
82 251 1
82 305 1
82 381 1
83 175 1
83 177 1
83 253 1
83 261 1
83 304 1
83 324 1
83 335 1
83 361 1
84 97 1
84 137 1
84 219 1
84 286 1
84 358 1
85 238 1
85 251 1
85 290 1
85 340 1
85 370 1
86 106 1
86 208 1
86 389 1
87 88 1
87 162 1
87 359 1
87 381 1
88 106 1
88 202 1
88 296 1
88 306 1
89 276 1
89 312 1
89 339 1
90 126 1
90 140 1
90 184 1
90 194 1
90 277 1
90 278 1
91 312 1
92 103 1
92 250 1
92 364 1
93 107 1
93 109 1
93 113 1
93 170 1
93 306 1
93 329 1
93 355 1
94 318 1
94 332 1
94 394 1
95 132 1
95 274 1
96 127 1
96 154 1
96 220 1
96 365 1
96 387 1
97 125 1
97 142 1
97 218 1
97 224 1
97 350 1
98 103 1
99 138 1
100 101 1
100 158 1
100 171 1
100 240 1
100 270 1
100 313 1
100 315 1
101 357 1
101 369 1
102 107 1
102 204 1
102 253 1
102 258 1
102 285 1
102 312 1
102 316 1
102 394 1
103 379 1
104 114 1
104 132 1
104 144 1
104 182 1
104 371 1
104 387 1
105 150 1
105 160 1
105 172 1
105 200 1
105 222 1
105 240 1
105 260 1
105 341 1
106 151 1
106 211 1
106 366 1
107 120 1
107 195 1
107 299 1
107 344 1
107 350 1
107 352 1
109 164 1
109 184 1
109 214 1
109 271 1
110 118 1
110 182 1
110 189 1
110 298 1
110 392 1
111 117 1
111 163 1
111 185 1
111 195 1
111 244 1
111 297 1
111 349 1
112 216 1
112 221 1
112 222 1
112 319 1
112 374 1
112 399 1
114 174 1
114 223 1
114 238 1
114 333 1
114 378 1
115 226 1
115 373 1
115 375 1
116 134 1
116 241 1
116 279 1
116 308 1
117 153 1
117 373 1
117 396 1
118 177 1
118 254 1
118 302 1
120 239 1
120 242 1
120 322 1
120 379 1
120 382 1
121 135 1
121 136 1
121 175 1
121 190 1
121 206 1
121 354 1
122 185 1
122 229 1
122 284 1
122 320 1
122 348 1
123 131 1
123 192 1
123 198 1
123 238 1
123 295 1
123 367 1
124 196 1
124 201 1
124 380 1
125 129 1
125 144 1
125 174 1
125 295 1
125 297 1
125 337 1
126 203 1
126 207 1
126 228 1
126 358 1
127 366 1
128 170 1
128 183 1
128 304 1
129 347 1
129 398 1
130 169 1
130 240 1
130 372 1
131 139 1
131 145 1
131 166 1
131 256 1
131 274 1
131 294 1
132 210 1
133 225 1
134 219 1
134 272 1
134 326 1
134 392 1
135 136 1
135 175 1
135 231 1
135 298 1
135 354 1
135 362 1
136 183 1
137 358 1
138 145 1
139 341 1
139 343 1
140 277 1
140 321 1
142 178 1
142 237 1
143 234 1
144 348 1
146 163 1
146 167 1
146 213 1
146 303 1
147 266 1
147 294 1
148 155 1
148 200 1
148 226 1
148 238 1
148 242 1
148 263 1
148 289 1
148 396 1
149 187 1
149 215 1
149 318 1
150 152 1
150 207 1
152 326 1
152 343 1
153 220 1
153 221 1
153 252 1
154 206 1
154 334 1
155 178 1
155 207 1
155 252 1
156 166 1
156 176 1
156 214 1
156 228 1
156 330 1
156 337 1
156 347 1
157 190 1
157 201 1
157 219 1
157 257 1
157 287 1
158 192 1
158 371 1
158 384 1
158 385 1
159 180 1
159 283 1
159 298 1
160 353 1
163 228 1
163 275 1
164 241 1
165 204 1
165 224 1
168 227 1
168 329 1
169 172 1
169 186 1
169 283 1
169 306 1
169 365 1
169 367 1
170 171 1
170 336 1
170 393 1
171 284 1
171 349 1
173 316 1
174 223 1
174 262 1
175 231 1
175 244 1
175 290 1
175 388 1
176 273 1
177 336 1
180 235 1
182 349 1
183 221 1
184 189 1
184 288 1
184 368 1
185 198 1
185 233 1
186 222 1
186 249 1
187 193 1
187 230 1
187 291 1
187 346 1
187 376 1
189 198 1
189 205 1
189 211 1
191 369 1
193 212 1
193 260 1
193 272 1
194 336 1
195 247 1
195 285 1
195 350 1
195 385 1
195 397 1
196 201 1
196 318 1
197 267 1
197 277 1
198 365 1
199 234 1
199 354 1
200 215 1
200 286 1
200 287 1
200 325 1
201 230 1
201 288 1
201 291 1
201 395 1
202 257 1
202 365 1
203 262 1
204 255 1
204 302 1
204 315 1
205 364 1
206 237 1
206 246 1
209 397 1
210 246 1
210 314 1
210 384 1
211 359 1
212 359 1
213 287 1
213 362 1
213 388 1
214 245 1
214 254 1
214 272 1
214 391 1
215 282 1
215 325 1
216 313 1
216 390 1
217 258 1
217 296 1
217 363 1
217 392 1
218 243 1
219 320 1
219 335 1
220 317 1
221 333 1
221 353 1
222 268 1
222 334 1
222 378 1
223 296 1
224 348 1
226 269 1
226 373 1
226 375 1
227 229 1
227 319 1
227 322 1
227 390 1
228 251 1
228 267 1
228 329 1
228 390 1
229 245 1
230 236 1
230 251 1
231 293 1
231 351 1
232 357 1
233 369 1
236 395 1
237 322 1
238 290 1
240 295 1
241 375 1
242 278 1
242 303 1
242 319 1
244 372 1
247 250 1
249 256 1
251 267 1
251 284 1
251 315 1
251 340 1
251 347 1
253 386 1
253 400 1
259 278 1
259 400 1
260 276 1
260 316 1
260 361 1
260 363 1
260 367 1
261 300 1
261 395 1
262 265 1
263 269 1
265 287 1
266 355 1
267 271 1
267 337 1
268 345 1
269 344 1
271 361 1
271 366 1
272 323 1
273 360 1
274 333 1
275 348 1
276 301 1
276 305 1
276 377 1
276 388 1
276 396 1
277 385 1
278 304 1
278 335 1
280 344 1
281 374 1
282 309 1
282 346 1
282 356 1
284 324 1
286 387 1
287 353 1
290 342 1
293 314 1
293 342 1
295 370 1
297 300 1
300 323 1
300 335 1
301 366 1
304 317 1
304 352 1
306 346 1
306 351 1
310 313 1
313 370 1
314 369 1
346 356 1
352 363 1
358 380 1
358 386 1
358 389 1
361 382 1
390 394 1
